0 1
1 2
2 3
3 4
4 5
5 6
6 7
7 8
8 9
9 10
10 11
11 12
12 13
13 14
14 15
15 16
16 17
17 18
18 19
19 20
21 22
22 23
23 24
24 25
25 26
26 27
27 28
28 29
29 30
30 31
31 32
32 33
33 34
34 35
35 36
36 37
37 38
38 39
39 40
40 41
42 43
43 44
44 45
45 46
46 47
47 48
48 49
49 50
50 51
51 52
52 53
53 54
54 55
55 56
56 57
57 58
58 59
59 60
60 61
61 62
63 64
64 65
65 66
66 67
67 68
68 69
69 70
70 71
71 72
72 73
73 74
74 75
75 76
76 77
77 78
78 79
79 80
80 81
81 82
82 83
84 85
85 86
86 87
87 88
88 89
89 90
90 91
91 92
92 93
93 94
94 95
95 96
96 97
97 98
98 99
99 100
100 101
101 102
102 103
103 104
105 106
106 107
107 108
108 109
109 110
110 111
111 112
112 113
113 114
114 115
115 116
116 117
117 118
118 119
119 120
120 121
121 122
122 123
123 124
124 125
126 127
127 128
128 129
129 130
130 131
131 132
132 133
133 134
134 135
135 136
136 137
137 138
138 139
139 140
140 141
141 142
142 143
143 144
144 145
145 146
147 148
148 149
149 150
150 151
151 152
152 153
153 154
154 155
155 156
156 157
157 158
158 159
159 160
160 161
161 162
162 163
163 164
164 165
165 166
166 167
168 169
169 170
170 171
171 172
172 173
173 174
174 175
175 176
176 177
177 178
178 179
179 180
180 181
181 182
182 183
183 184
184 185
185 186
186 187
187 188
189 190
190 191
191 192
192 193
193 194
194 195
195 196
196 197
197 198
198 199
199 200
200 201
201 202
202 203
203 204
204 205
205 206
206 207
207 208
208 209
210 211
211 212
212 213
213 214
214 215
215 216
216 217
217 218
218 219
219 220
220 221
221 222
222 223
223 224
224 225
225 226
226 227
227 228
228 229
229 230
231 232
232 233
233 234
234 235
235 236
236 237
237 238
238 239
239 240
240 241
241 242
242 243
243 244
244 245
245 246
246 247
247 248
248 249
249 250
250 251
252 253
253 254
254 255
255 256
256 257
257 258
258 259
259 260
260 261
261 262
262 263
263 264
264 265
265 266
266 267
267 268
268 269
269 270
270 271
271 272
273 274
274 275
275 276
276 277
277 278
278 279
279 280
280 281
281 282
282 283
283 284
284 285
285 286
286 287
287 288
288 289
289 290
290 291
291 292
292 293
294 295
295 296
296 297
297 298
298 299
299 300
300 301
301 302
302 303
303 304
304 305
305 306
306 307
307 308
308 309
309 310
310 311
311 312
312 313
313 314
315 316
316 317
317 318
318 319
319 320
320 321
321 322
322 323
323 324
324 325
325 326
326 327
327 328
328 329
329 330
330 331
331 332
332 333
333 334
334 335
336 337
337 338
338 339
339 340
340 341
341 342
342 343
343 344
344 345
345 346
346 347
347 348
348 349
349 350
350 351
351 352
352 353
353 354
354 355
355 356
357 358
358 359
359 360
360 361
361 362
362 363
363 364
364 365
365 366
366 367
367 368
368 369
369 370
370 371
371 372
372 373
373 374
374 375
375 376
376 377
378 379
379 380
380 381
381 382
382 383
383 384
384 385
385 386
386 387
387 388
388 389
389 390
390 391
391 392
392 393
393 394
394 395
395 396
396 397
397 398
399 400
400 401
401 402
402 403
403 404
404 405
405 406
406 407
407 408
408 409
409 410
410 411
411 412
412 413
413 414
414 415
415 416
416 417
417 418
418 419
420 421
421 422
422 423
423 424
424 425
425 426
426 427
427 428
428 429
429 430
430 431
431 432
432 433
433 434
434 435
435 436
436 437
437 438
438 439
439 440
0 21
21 42
42 63
63 84
84 105
105 126
126 147
147 168
168 189
189 210
210 231
231 252
252 273
273 294
294 315
315 336
336 357
357 378
378 399
399 420
1 22
22 43
43 64
64 85
85 106
106 127
127 148
148 169
169 190
190 211
211 232
232 253
253 274
274 295
295 316
316 337
337 358
358 379
379 400
400 421
2 23
23 44
44 65
65 86
86 107
107 128
128 149
149 170
170 191
191 212
212 233
233 254
254 275
275 296
296 317
317 338
338 359
359 380
380 401
401 422
3 24
24 45
45 66
66 87
87 108
108 129
129 150
150 171
171 192
192 213
213 234
234 255
255 276
276 297
297 318
318 339
339 360
360 381
381 402
402 423
4 25
25 46
46 67
67 88
88 109
109 130
130 151
151 172
172 193
193 214
214 235
235 256
256 277
277 298
298 319
319 340
340 361
361 382
382 403
403 424
5 26
26 47
47 68
68 89
89 110
110 131
131 152
152 173
173 194
194 215
215 236
236 257
257 278
278 299
299 320
320 341
341 362
362 383
383 404
404 425
6 27
27 48
48 69
69 90
90 111
111 132
132 153
153 174
174 195
195 216
216 237
237 258
258 279
279 300
300 321
321 342
342 363
363 384
384 405
405 426
7 28
28 49
49 70
70 91
91 112
112 133
133 154
154 175
175 196
196 217
217 238
238 259
259 280
280 301
301 322
322 343
343 364
364 385
385 406
406 427
8 29
29 50
50 71
71 92
92 113
113 134
134 155
155 176
176 197
197 218
218 239
239 260
260 281
281 302
302 323
323 344
344 365
365 386
386 407
407 428
9 30
30 51
51 72
72 93
93 114
114 135
135 156
156 177
177 198
198 219
219 240
240 261
261 282
282 303
303 324
324 345
345 366
366 387
387 408
408 429
10 31
31 52
52 73
73 94
94 115
115 136
136 157
157 178
178 199
199 220
220 241
241 262
262 283
283 304
304 325
325 346
346 367
367 388
388 409
409 430
11 32
32 53
53 74
74 95
95 116
116 137
137 158
158 179
179 200
200 221
221 242
242 263
263 284
284 305
305 326
326 347
347 368
368 389
389 410
410 431
12 33
33 54
54 75
75 96
96 117
117 138
138 159
159 180
180 201
201 222
222 243
243 264
264 285
285 306
306 327
327 348
348 369
369 390
390 411
411 432
13 34
34 55
55 76
76 97
97 118
118 139
139 160
160 181
181 202
202 223
223 244
244 265
265 286
286 307
307 328
328 349
349 370
370 391
391 412
412 433
14 35
35 56
56 77
77 98
98 119
119 140
140 161
161 182
182 203
203 224
224 245
245 266
266 287
287 308
308 329
329 350
350 371
371 392
392 413
413 434
15 36
36 57
57 78
78 99
99 120
120 141
141 162
162 183
183 204
204 225
225 246
246 267
267 288
288 309
309 330
330 351
351 372
372 393
393 414
414 435
16 37
37 58
58 79
79 100
100 121
121 142
142 163
163 184
184 205
205 226
226 247
247 268
268 289
289 310
310 331
331 352
352 373
373 394
394 415
415 436
17 38
38 59
59 80
80 101
101 122
122 143
143 164
164 185
185 206
206 227
227 248
248 269
269 290
290 311
311 332
332 353
353 374
374 395
395 416
416 437
18 39
39 60
60 81
81 102
102 123
123 144
144 165
165 186
186 207
207 228
228 249
249 270
270 291
291 312
312 333
333 354
354 375
375 396
396 417
417 438
19 40
40 61
61 82
82 103
103 124
124 145
145 166
166 187
187 208
208 229
229 250
250 271
271 292
292 313
313 334
334 355
355 376
376 397
397 418
418 439
20 41
41 62
62 83
83 104
104 125
125 146
146 167
167 188
188 209
209 230
230 251
251 272
272 293
293 314
314 335
335 356
356 377
377 398
398 419
419 440
0 22
2 22
2 24
4 24
4 26
6 26
6 28
8 28
8 30
10 30
10 32
12 32
12 34
14 34
14 36
16 36
16 38
18 38
18 40
20 40
22 42
22 44
24 44
24 46
26 46
26 48
28 48
28 50
30 50
30 52
32 52
32 54
34 54
34 56
36 56
36 58
38 58
38 60
40 60
40 62
42 64
44 64
44 66
46 66
46 68
48 68
48 70
50 70
50 72
52 72
52 74
54 74
54 76
56 76
56 78
58 78
58 80
60 80
60 82
62 82
64 84
64 86
66 86
66 88
68 88
68 90
70 90
70 92
72 92
72 94
74 94
74 96
76 96
76 98
78 98
78 100
80 100
80 102
82 102
82 104
84 106
86 106
86 108
88 108
88 110
90 110
90 112
92 112
92 114
94 114
94 116
96 116
96 118
98 118
98 120
100 120
100 122
102 122
102 124
104 124
106 126
106 128
108 128
108 130
110 130
110 132
112 132
112 134
114 134
114 136
116 136
116 138
118 138
118 140
120 140
120 142
122 142
122 144
124 144
124 146
126 148
128 148
128 150
130 150
130 152
132 152
132 154
134 154
134 156
136 156
136 158
138 158
138 160
140 160
140 162
142 162
142 164
144 164
144 166
146 166
148 168
148 170
150 170
150 172
152 172
152 174
154 174
154 176
156 176
156 178
158 178
158 180
160 180
160 182
162 182
162 184
164 184
164 186
166 186
166 188
168 190
170 190
170 192
172 192
172 194
174 194
174 196
176 196
176 198
178 198
178 200
180 200
180 202
182 202
182 204
184 204
184 206
186 206
186 208
188 208
190 210
190 212
192 212
192 214
194 214
194 216
196 216
196 218
198 218
198 220
200 220
200 222
202 222
202 224
204 224
204 226
206 226
206 228
208 228
208 230
210 232
212 232
212 234
214 234
214 236
216 236
216 238
218 238
218 240
220 240
220 242
222 242
222 244
224 244
224 246
226 246
226 248
228 248
228 250
230 250
232 252
232 254
234 254
234 256
236 256
236 258
238 258
238 260
240 260
240 262
242 262
242 264
244 264
244 266
246 266
246 268
248 268
248 270
250 270
250 272
252 274
254 274
254 276
256 276
256 278
258 278
258 280
260 280
260 282
262 282
262 284
264 284
264 286
266 286
266 288
268 288
268 290
270 290
270 292
272 292
274 294
274 296
276 296
276 298
278 298
278 300
280 300
280 302
282 302
282 304
284 304
284 306
286 306
286 308
288 308
288 310
290 310
290 312
292 312
292 314
294 316
296 316
296 318
298 318
298 320
300 320
300 322
302 322
302 324
304 324
304 326
306 326
306 328
308 328
308 330
310 330
310 332
312 332
312 334
314 334
316 336
316 338
318 338
318 340
320 340
320 342
322 342
322 344
324 344
324 346
326 346
326 348
328 348
328 350
330 350
330 352
332 352
332 354
334 354
334 356
336 358
338 358
338 360
340 360
340 362
342 362
342 364
344 364
344 366
346 366
346 368
348 368
348 370
350 370
350 372
352 372
352 374
354 374
354 376
356 376
358 378
358 380
360 380
360 382
362 382
362 384
364 384
364 386
366 386
366 388
368 388
368 390
370 390
370 392
372 392
372 394
374 394
374 396
376 396
376 398
378 400
380 400
380 402
382 402
382 404
384 404
384 406
386 406
386 408
388 408
388 410
390 410
390 412
392 412
392 414
394 414
394 416
396 416
396 418
398 418
400 420
400 422
402 422
402 424
404 424
404 426
406 426
406 428
408 428
408 430
410 430
410 432
412 432
412 434
414 434
414 436
416 436
416 438
418 438
418 440
